
n_res = 6;
rcap = [61, 62, 56, 57, 799, 858];
rtype = [1, 1, 1, 1, 2, 2];
n_tasks = 50;
modes =  [{1, 2, 3}, {4, 5, 6}, {7, 8, 9}, {10, 11, 12}, {13, 14, 15}, {16, 17, 18}, {19, 20, 21}, {22, 23, 24}, {25, 26, 27}, {28, 29, 30}, {31, 32, 33}, {34, 35, 36}, {37, 38, 39}, {40, 41, 42}, {43, 44, 45}, {46, 47, 48}, {49, 50, 51}, {52, 53, 54}, {55, 56, 57}, {58, 59, 60}, {61, 62, 63}, {64, 65, 66}, {67, 68, 69}, {70, 71, 72}, {73, 74, 75}, {76, 77, 78}, {79, 80, 81}, {82, 83, 84}, {85, 86, 87}, {88, 89, 90}, {91, 92, 93}, {94, 95, 96}, {97, 98, 99}, {100, 101, 102}, {103, 104, 105}, {106, 107, 108}, {109, 110, 111}, {112, 113, 114}, {115, 116, 117}, {118, 119, 120}, {121, 122, 123}, {124, 125, 126}, {127, 128, 129}, {130, 131, 132}, {133, 134, 135}, {136, 137, 138}, {139, 140, 141}, {142, 143, 144}, {145, 146, 147}, {148, 149, 150}];
succ =  [{16, 9, 6, 4}, {16, 12, 8, 6}, {12, 11, 10, 9, 7}, {15, 12, 11, 10}, {20, 16, 11, 7}, {20, 14, 7}, {22, 18, 17, 15}, {22, 19, 11}, {30, 22, 20, 19, 18, 17}, {30, 20, 19, 17, 14}, {30, 27, 24, 18, 17}, {30, 27, 24, 18, 17}, {30, 27, 24, 21, 17}, {29, 27, 26, 24, 21}, {30, 27, 26, 19}, {30, 29, 26, 22}, {29, 28, 26, 23}, {29, 21}, {35, 29, 28, 25, 24}, {35, 28, 26, 25, 24}, {28, 23}, {28, 23}, {40, 35, 25}, {37, 36, 33, 32, 31}, {36, 34, 32, 31}, {41, 40, 36, 33, 31}, {40, 37, 36, 31}, {36, 34, 33}, {44, 41, 40, 36}, {39, 38, 37}, {39, 38}, {46, 44, 43, 42, 41}, {44, 38}, {46, 37}, {50, 46, 44, 43, 42}, {48, 38}, {43, 42, 41}, {50, 46, 43, 42}, {49, 46, 44}, {50, 48, 45}, {50, 48, 47}, {49, 45}, {49, 45}, {48, 45}, {47}, {47}, {}, {}, {}, {}];
n_opt = 150;
dur = [1, 5, 22, 12, 20, 23, 11, 18, 19, 2, 22, 23, 2, 20, 21, 2, 10, 21, 2, 3, 4, 11, 16, 28, 3, 6, 24, 20, 24, 25, 5, 8, 23, 3, 16, 17, 13, 24, 29, 8, 12, 26, 11, 24, 27, 6, 10, 12, 2, 16, 23, 14, 28, 29, 17, 18, 21, 9, 12, 13, 1, 9, 26, 16, 21, 22, 1, 14, 23, 11, 26, 28, 13, 14, 26, 12, 15, 21, 12, 13, 14, 2, 16, 30, 1, 11, 18, 8, 19, 21, 3, 14, 21, 4, 5, 10, 3, 18, 26, 3, 16, 28, 8, 14, 19, 5, 7, 27, 2, 18, 25, 13, 19, 20, 7, 9, 20, 10, 14, 21, 2, 15, 17, 8, 18, 21, 5, 24, 27, 16, 17, 22, 1, 11, 13, 21, 22, 28, 3, 11, 24, 3, 28, 30, 1, 10, 24, 11, 19, 22];
rreq = [|26, 18, 15, 21, 17, 16, 21, 17, 13, 11, 7, 6, 26, 23, 16, 27, 16, 11, 8, 8, 4, 26, 23, 13, 25, 23, 22, 24, 17, 10, 27, 26, 24, 20, 12, 6, 14, 11, 7, 27, 25, 25, 6, 3, 1, 19, 9, 5, 21, 18, 17, 13, 11, 9, 27, 19, 12, 15, 14, 14, 25, 17, 7, 5, 4, 4, 18, 13, 11, 21, 17, 8, 17, 13, 11, 28, 28, 28, 23, 21, 20, 30, 26, 24, 4, 3, 2, 16, 15, 14, 17, 17, 8, 7, 7, 2, 9, 6, 4, 15, 15, 14, 7, 4, 4, 21, 21, 20, 22, 22, 20, 3, 3, 2, 28, 21, 6, 10, 8, 8, 8, 7, 7, 29, 23, 15, 18, 14, 2, 5, 4, 4, 4, 4, 3, 4, 3, 3, 5, 4, 3, 19, 17, 11, 13, 13, 13, 28, 28, 28
 |19, 11, 10, 27, 23, 21, 15, 13, 7, 20, 12, 5, 6, 2, 1, 26, 24, 20, 17, 16, 13, 25, 9, 3, 26, 11, 5, 27, 24, 21, 19, 10, 10, 24, 22, 19, 19, 11, 6, 21, 20, 7, 21, 21, 19, 19, 13, 9, 19, 15, 8, 18, 16, 13, 22, 16, 9, 10, 7, 6, 19, 18, 16, 26, 24, 24, 7, 7, 4, 18, 12, 3, 10, 8, 7, 2, 2, 2, 20, 19, 19, 25, 20, 19, 19, 18, 14, 21, 20, 18, 13, 12, 10, 24, 17, 11, 22, 18, 14, 25, 16, 13, 18, 17, 11, 12, 8, 6, 28, 27, 25, 24, 22, 22, 22, 19, 17, 26, 23, 18, 27, 25, 24, 24, 19, 10, 28, 18, 2, 26, 14, 5, 24, 20, 19, 27, 21, 18, 11, 8, 5, 8, 6, 4, 9, 8, 8, 12, 9, 4
 |21, 21, 19, 25, 17, 4, 10, 7, 6, 19, 13, 5, 27, 16, 9, 19, 15, 12, 15, 15, 15, 5, 4, 2, 14, 10, 9, 21, 18, 14, 14, 11, 10, 10, 9, 9, 8, 8, 8, 8, 4, 3, 17, 14, 5, 13, 8, 6, 25, 23, 20, 27, 26, 25, 12, 10, 9, 15, 12, 4, 26, 18, 9, 25, 15, 9, 22, 9, 6, 18, 16, 13, 25, 18, 15, 11, 7, 3, 11, 10, 9, 28, 24, 21, 23, 16, 7, 13, 11, 10, 25, 20, 16, 18, 12, 11, 23, 12, 1, 19, 15, 12, 24, 22, 11, 11, 11, 11, 23, 18, 8, 15, 12, 9, 25, 20, 10, 15, 11, 9, 23, 19, 8, 9, 4, 3, 14, 10, 4, 19, 19, 14, 27, 17, 9, 23, 18, 18, 22, 14, 10, 21, 20, 20, 12, 9, 2, 17, 13, 8
 |17, 10, 2, 16, 15, 15, 9, 6, 5, 9, 9, 8, 11, 7, 5, 25, 22, 20, 9, 9, 9, 23, 23, 23, 27, 25, 24, 21, 14, 10, 13, 7, 4, 10, 9, 7, 16, 12, 3, 22, 18, 17, 20, 17, 12, 19, 17, 14, 11, 10, 8, 5, 4, 3, 17, 17, 9, 26, 24, 20, 26, 23, 17, 25, 25, 21, 24, 19, 15, 22, 21, 14, 27, 26, 23, 6, 6, 5, 27, 23, 10, 6, 5, 2, 14, 7, 3, 6, 6, 4, 13, 13, 11, 20, 13, 8, 19, 15, 8, 22, 14, 3, 18, 17, 13, 22, 14, 8, 21, 21, 21, 14, 13, 9, 27, 24, 21, 26, 22, 21, 11, 7, 7, 12, 10, 6, 12, 8, 6, 22, 19, 14, 20, 20, 20, 29, 28, 28, 17, 11, 4, 24, 17, 9, 12, 11, 10, 7, 4, 3
 |8, 7, 5, 8, 6, 6, 28, 20, 14, 23, 21, 19, 14, 13, 13, 28, 23, 19, 28, 26, 23, 20, 20, 16, 28, 22, 15, 25, 16, 9, 14, 13, 11, 14, 14, 13, 30, 24, 23, 19, 18, 11, 4, 3, 3, 8, 5, 3, 23, 18, 10, 5, 4, 4, 27, 18, 13, 4, 4, 4, 15, 13, 8, 25, 13, 7, 17, 9, 5, 14, 11, 11, 9, 5, 2, 27, 24, 21, 18, 18, 17, 6, 6, 5, 16, 11, 7, 13, 13, 12, 5, 4, 1, 26, 26, 26, 8, 7, 6, 30, 23, 20, 11, 11, 11, 7, 7, 7, 21, 19, 17, 29, 25, 25, 20, 16, 15, 21, 18, 15, 29, 28, 28, 16, 10, 10, 14, 9, 6, 23, 23, 23, 16, 13, 12, 10, 10, 10, 10, 6, 5, 19, 15, 9, 18, 9, 4, 20, 15, 4
 |24, 18, 14, 8, 4, 1, 8, 5, 1, 27, 13, 9, 7, 5, 5, 22, 15, 12, 27, 24, 18, 18, 16, 16, 21, 17, 11, 8, 8, 8, 17, 9, 5, 14, 9, 8, 14, 10, 5, 14, 12, 5, 11, 10, 4, 10, 9, 7, 20, 12, 4, 16, 15, 13, 25, 24, 21, 25, 25, 25, 22, 22, 21, 23, 17, 12, 22, 22, 19, 21, 13, 13, 23, 22, 16, 24, 23, 23, 18, 9, 7, 18, 12, 9, 25, 21, 13, 17, 9, 7, 28, 25, 23, 20, 19, 18, 13, 6, 2, 26, 23, 17, 16, 14, 6, 24, 21, 16, 22, 10, 4, 26, 17, 11, 19, 16, 12, 21, 18, 13, 22, 15, 10, 28, 18, 16, 18, 18, 18, 15, 12, 8, 19, 19, 18, 23, 19, 15, 26, 22, 13, 12, 8, 3, 19, 11, 9, 8, 8, 6|];